Problem:    
Rows:       113
Columns:    45 (34 integer, 34 binary)
Non-zeros:  350
Status:     INTEGER OPTIMAL
Objective:  value = 12.395875 (MINimum)

   No.   Row name        Activity     Lower bound   Upper bound
------ ------------    ------------- ------------- -------------
     1 r.5                   12.3959             0               
     2 r.6                  -1012.28      -1012.82               
     3 r.7                    1036.4             0               
     4 r.8                   -1011.6      -1020.45               
     5 r.9                   12.3959             0               
     6 r.10                 -1015.19      -1015.72               
     7 r.11                   1036.4             0               
     8 r.12                 -1021.35      -1022.09               
     9 r.13                   1036.4             0               
    10 r.14                  -1011.6      -1012.14               
    11 r.15                  12.3959             0               
    12 r.16                  12.3959      -1020.77               
    13 r.17                  12.3959             0               
    14 r.18                  12.3959      -1005.47               
    15 r.19                   1036.4             0               
    16 r.20                 -1015.15      -1017.81               
    17 r.21                   1036.4             0               
    18 r.22                 -1023.46      -1023.46               
    19 r.23                  12.3959             0               
    20 r.24                 0.535875      -1022.45               
    21 r.25                        1             1             = 
    22 r.26                        1             1             = 
    23 r.27                        1             1             = 
    24 r.28                        1             1             = 
    25 r.29                        1             1             = 
    26 r.30                     1024             2               
    27 r.31                    -1024         -1025               
    28 r.32                  2045.09      -1015.72               
    29 r.33                        2             2               
    30 r.34                       -2         -1025               
    31 r.35                 -9.74193      -1022.09               
    32 r.36                     1025             2               
    33 r.37                    -1025         -1025               
    34 r.38                  3072.68      -1012.14               
    35 r.39                     1025             2               
    36 r.40                    -1025         -1025               
    37 r.41                     2048      -1020.77               
    38 r.42                     1024             2               
    39 r.43                    -1024         -1025               
    40 r.44                  3072.68      -1005.47               
    41 r.45                        2             2               
    42 r.46                       -2         -1025               
    43 r.47                 -3.54953      -1017.81               
    44 r.48                 -1012.82      -1012.82               
    45 r.49                 -1012.14      -1020.45               
    46 r.50                 -1012.82      -1012.82               
    47 r.51                 -1012.14      -1020.45               
    48 r.52                     1024             2               
    49 r.53                    -1024         -1025               
    50 r.54                  2050.91       11.1847               
    51 r.55                        2             2               
    52 r.56                       -2         -1025               
    53 r.57                  9.74193       3.54953               
    54 r.58                     1025             2               
    55 r.59                    -1025         -1025               
    56 r.60                  3075.58      -1012.14               
    57 r.61                     1025             2               
    58 r.62                    -1025         -1025               
    59 r.63                  2057.74      -1020.77               
    60 r.64                     1024             2               
    61 r.65                    -1024         -1025               
    62 r.66                  3075.58      -1005.47               
    63 r.67                        2             2               
    64 r.68                       -2         -1025               
    65 r.69                 -1017.81      -1017.81               
    66 r.70                 -1015.72      -1015.72               
    67 r.71                 -1021.88      -1022.09               
    68 r.72                 -1015.72      -1015.72               
    69 r.73                 -1021.88      -1022.09               
    70 r.74                     1025             2               
    71 r.75                    -1025         -1025               
    72 r.76                  1023.32       11.1847               
    73 r.77                     1025             2               
    74 r.78                    -1025         -1025               
    75 r.79                     2048       3.54953               
    76 r.80                     1025             2               
    77 r.81                    -1025         -1025               
    78 r.82                  1020.42        8.2768               
    79 r.83                     1025             2               
    80 r.84                    -1025         -1025               
    81 r.85                  2038.26       1.91233               
    82 r.86                     1025             2               
    83 r.87                    -1025         -1025               
    84 r.88                     2048      -1005.47               
    85 r.89                     1025             2               
    86 r.90                    -1025         -1025               
    87 r.91                  2044.45      -1017.81               
    88 r.92                 -1012.14      -1012.14               
    89 r.93                    11.86      -1020.77               
    90 r.94                 -1012.14      -1012.14               
    91 r.95                    11.86      -1020.77               
    92 r.96                     1024             2               
    93 r.97                    -1024         -1025               
    94 r.98                  1023.32       11.1847               
    95 r.99                        2             2               
    96 r.100                      -2         -1025               
    97 r.101                 3.54953       3.54953               
    98 r.102                    1024             2               
    99 r.103                   -1024         -1025               
   100 r.104                 1020.42        8.2768               
   101 r.105                       2             2               
   102 r.106                      -2         -1025               
   103 r.107                 1017.81       1.91233               
   104 r.108                    1025             2               
   105 r.109                   -1025         -1025               
   106 r.110                    2048         11.86               
   107 r.111                    1025             2               
   108 r.112                   -1025         -1025               
   109 r.113                 2051.55         3.231               
   110 r.114                   11.86      -1005.47               
   111 r.115                -1015.69      -1017.81               
   112 r.116                   11.86      -1005.47               
   113 r.117                -1015.69      -1017.81               

   No. Column name       Activity     Lower bound   Upper bound
------ ------------    ------------- ------------- -------------
     1 tt                    12.3959             0               
     2 s_1_1        *              0             0             1 
     3 t_1_1                 1024.68             0               
     4 s_2_1        *              1             0             1 
     5 t_2_1                       0             0               
     6 s_1_2        *              0             0             1 
     7 t_1_2                 1027.58             0               
     8 s_2_2        *              1             0             1 
     9 t_2_2                 9.74193             0               
    10 s_1_3        *              1             0             1 
    11 t_1_3                       0             0               
    12 s_2_3        *              0             0             1 
    13 t_2_3                       0             0               
    14 s_1_4        *              0             0             1 
    15 t_1_4                       0             0               
    16 s_2_4        *              1             0             1 
    17 t_2_4                 3.54953             0               
    18 s_1_5        *              1             0             1 
    19 t_1_5                   11.86             0               
    20 s_2_5        *              0             0             1 
    21 t_2_5                   11.86             0               
    22 r_1_1_2      *              1             0             1 
    23 u_1_1_2      *              0             0             1 
    24 r_2_1_2      *              0             0             1 
    25 u_2_1_2      *              0             0             1 
    26 r_1_1_3      *              1             0             1 
    27 u_1_1_3      *              0             0             1 
    28 r_2_1_3      *              1             0             1 
    29 u_2_1_3      *              0             0             1 
    30 r_1_1_4      *              1             0             1 
    31 u_1_1_4      *              0             0             1 
    32 r_2_1_4      *              0             0             1 
    33 u_2_1_4      *              0             0             1 
    34 r_1_2_3      *              1             0             1 
    35 u_1_2_3      *              0             0             1 
    36 r_2_2_3      *              1             0             1 
    37 u_2_2_3      *              0             0             1 
    38 r_1_2_4      *              1             0             1 
    39 u_1_2_4      *              0             0             1 
    40 r_2_2_4      *              0             0             1 
    41 u_2_2_4      *              1             0             1 
    42 r_1_3_4      *              1             0             1 
    43 u_1_3_4      *              0             0             1 
    44 r_2_3_4      *              1             0             1 
    45 u_2_3_4      *              0             0             1 

Integer feasibility conditions:

KKT.PE: max.abs.err = 0.00e+00 on row 0
        max.rel.err = 0.00e+00 on row 0
        High quality

KKT.PB: max.abs.err = 0.00e+00 on row 0
        max.rel.err = 0.00e+00 on row 0
        High quality

End of output
